/*********************************************
 * OPL 12.6.0.0 Data
 * Author: Adrian Rodriguez Bazaga, Pau Rodriguez Esmerats
 * Creation Date: 22/11/2017 at 18:56:20
 *********************************************/

nNurses=99;
maxConsec=2;
maxPresence=7;
maxHours=5;
minHours=1;
demand= [23 25 26 33 25 26 33 25 19 10 3 3 4 3 6 3 6 3 3 0 17 34 19 22  ];
